(set-logic QF_LIA)
(declare-fun x0 () Int)
(declare-fun x1 () Int)
(declare-fun x2 () Int)
(declare-fun x3 () Int)
(declare-fun x4 () Int)
(declare-fun x5 () Int)
(declare-fun x6 () Int)
(declare-fun x7 () Int)
(declare-fun x8 () Int)
(declare-fun x9 () Int)
(declare-fun A0 () Bool)
(declare-fun A1 () Bool)
(declare-fun A2 () Bool)
(declare-fun A3 () Bool)
(declare-fun A4 () Bool)
(declare-fun A5 () Bool)
(declare-fun A6 () Bool)
(declare-fun A7 () Bool)
(declare-fun A8 () Bool)
(declare-fun A9 () Bool)
(assert (let ((.def_0 (not A4))) (let ((.def_1 (or .def_0 A6))) (let ((.def_2 (not .def_1))) (let ((.def_3 (* (- 1) x8))) (let ((.def_4 (< .def_3 1))) (let ((.def_5 (and A0 .def_4))) (let ((.def_6 (not .def_5))) (let ((.def_7 (or .def_6 .def_2))) (let ((.def_8 (not .def_7))) (let ((.def_9 (* 1 x4))) (let ((.def_10 (< .def_9 (- 1)))) (let ((.def_11 (* 1 x0))) (let ((.def_12 (+ .def_9 .def_11))) (let ((.def_13 (< .def_12 (- 1)))) (let ((.def_14 (not .def_13))) (let ((.def_15 (or .def_14 .def_10))) (let ((.def_16 (* (- 1) x1))) (let ((.def_17 (< .def_16 (- 1)))) (let ((.def_18 (not .def_17))) (let ((.def_19 (* (- 1) x0))) (let ((.def_20 (* (- 1) x6))) (let ((.def_21 (+ .def_20 .def_19))) (let ((.def_22 (< .def_21 (- 1)))) (let ((.def_23 (not .def_22))) (let ((.def_24 (= .def_23 .def_18))) (let ((.def_25 (not .def_24))) (let ((.def_26 (and .def_25 .def_15))) (let ((.def_27 (not .def_26))) (let ((.def_28 (and .def_27 .def_8))) (let ((.def_29 (not .def_28))) (let ((.def_30 (* 1 x5))) (let ((.def_31 (* 1 x9))) (let ((.def_32 (+ .def_31 .def_30))) (let ((.def_33 (< .def_32 (- 1)))) (let ((.def_34 (not .def_33))) (let ((.def_35 (or .def_34 .def_13))) (let ((.def_36 (not A6))) (let ((.def_37 (not A0))) (let ((.def_38 (and .def_37 .def_36))) (let ((.def_39 (and .def_38 .def_35))) (let ((.def_40 (not .def_39))) (let ((.def_41 (not .def_4))) (let ((.def_42 (* 1 x6))) (let ((.def_43 (+ .def_11 .def_42))) (let ((.def_44 (< .def_43 (- 1)))) (let ((.def_45 (not .def_44))) (let ((.def_46 (and .def_45 .def_41))) (let ((.def_47 (not .def_46))) (let ((.def_48 (* 1 x7))) (let ((.def_49 (+ .def_48 .def_31))) (let ((.def_50 (< .def_49 1))) (let ((.def_51 (= .def_50 .def_36))) (let ((.def_52 (not .def_51))) (let ((.def_53 (and .def_52 .def_47))) (let ((.def_54 (not .def_53))) (let ((.def_55 (or .def_54 .def_40))) (let ((.def_56 (not .def_55))) (let ((.def_57 (and .def_56 .def_29))) (let ((.def_58 (not A7))) (let ((.def_59 (and .def_58 A7))) (let ((.def_60 (and .def_17 A5))) (let ((.def_61 (not .def_60))) (let ((.def_62 (= .def_61 .def_59))) (let ((.def_63 (< .def_3 (- 1)))) (let ((.def_64 (< .def_11 1))) (let ((.def_65 (not .def_64))) (let ((.def_66 (or .def_65 .def_63))) (let ((.def_67 (not A3))) (let ((.def_68 (* 1 x3))) (let ((.def_69 (< .def_68 1))) (let ((.def_70 (not .def_69))) (let ((.def_71 (or .def_70 .def_67))) (let ((.def_72 (= .def_71 .def_66))) (let ((.def_73 (not .def_72))) (let ((.def_74 (= .def_73 .def_62))) (let ((.def_75 (< .def_48 (- 1)))) (let ((.def_76 (* (- 1) x7))) (let ((.def_77 (+ .def_20 .def_76))) (let ((.def_78 (< .def_77 1))) (let ((.def_79 (not .def_78))) (let ((.def_80 (and .def_79 .def_75))) (let ((.def_81 (* (- 1) x2))) (let ((.def_82 (* (- 1) x3))) (let ((.def_83 (+ .def_82 .def_81))) (let ((.def_84 (< .def_83 (- 1)))) (let ((.def_85 (not .def_84))) (let ((.def_86 (and .def_36 .def_85))) (let ((.def_87 (or .def_86 .def_80))) (let ((.def_88 (+ .def_48 .def_30))) (let ((.def_89 (< .def_88 (- 1)))) (let ((.def_90 (= .def_89 .def_67))) (let ((.def_91 (not .def_90))) (let ((.def_92 (+ .def_48 .def_3))) (let ((.def_93 (< .def_92 (- 1)))) (let ((.def_94 (* 1 x8))) (let ((.def_95 (+ .def_94 .def_16))) (let ((.def_96 (< .def_95 1))) (let ((.def_97 (not .def_96))) (let ((.def_98 (and .def_97 .def_93))) (let ((.def_99 (or .def_98 .def_91))) (let ((.def_100 (or .def_99 .def_87))) (let ((.def_101 (or .def_100 .def_74))) (let ((.def_102 (and .def_101 .def_57))) (let ((.def_103 (not .def_102))) (let ((.def_104 (* (- 1) x5))) (let ((.def_105 (+ .def_104 .def_16))) (let ((.def_106 (< .def_105 (- 1)))) (let ((.def_107 (< .def_94 1))) (let ((.def_108 (or .def_107 .def_106))) (let ((.def_109 (< .def_30 (- 1)))) (let ((.def_110 (= .def_36 .def_109))) (let ((.def_111 (or .def_110 .def_108))) (let ((.def_112 (* (- 1) x4))) (let ((.def_113 (< .def_112 1))) (let ((.def_114 (not .def_113))) (let ((.def_115 (* 1 x2))) (let ((.def_116 (< .def_115 (- 1)))) (let ((.def_117 (not .def_116))) (let ((.def_118 (and .def_117 .def_114))) (let ((.def_119 (not .def_118))) (let ((.def_120 (+ .def_81 .def_11))) (let ((.def_121 (< .def_120 (- 1)))) (let ((.def_122 (or .def_121 .def_0))) (let ((.def_123 (not .def_122))) (let ((.def_124 (or .def_123 .def_119))) (let ((.def_125 (or .def_124 .def_111))) (let ((.def_126 (not A2))) (let ((.def_127 (not A1))) (let ((.def_128 (and .def_127 .def_126))) (let ((.def_129 (< .def_42 (- 1)))) (let ((.def_130 (not .def_129))) (let ((.def_131 (< .def_94 (- 1)))) (let ((.def_132 (or .def_131 .def_130))) (let ((.def_133 (= .def_132 .def_128))) (let ((.def_134 (not .def_133))) (let ((.def_135 (< .def_76 1))) (let ((.def_136 (and .def_135 A9))) (let ((.def_137 (+ .def_30 .def_81))) (let ((.def_138 (< .def_137 1))) (let ((.def_139 (< .def_115 1))) (let ((.def_140 (not .def_139))) (let ((.def_141 (and .def_140 .def_138))) (let ((.def_142 (not .def_141))) (let ((.def_143 (= .def_142 .def_136))) (let ((.def_144 (not .def_143))) (let ((.def_145 (or .def_144 .def_134))) (let ((.def_146 (not .def_145))) (let ((.def_147 (and .def_146 .def_125))) (let ((.def_148 (not .def_147))) (let ((.def_149 (not .def_135))) (let ((.def_150 (+ .def_104 .def_115))) (let ((.def_151 (< .def_150 (- 1)))) (let ((.def_152 (not .def_151))) (let ((.def_153 (and .def_152 .def_149))) (let ((.def_154 (not .def_153))) (let ((.def_155 (not A5))) (let ((.def_156 (or A9 .def_155))) (let ((.def_157 (not .def_156))) (let ((.def_158 (or .def_157 .def_154))) (let ((.def_159 (+ .def_31 .def_68))) (let ((.def_160 (< .def_159 (- 1)))) (let ((.def_161 (not .def_160))) (let ((.def_162 (< .def_48 1))) (let ((.def_163 (not .def_162))) (let ((.def_164 (or .def_163 .def_161))) (let ((.def_165 (not .def_164))) (let ((.def_166 (+ .def_94 .def_68))) (let ((.def_167 (< .def_166 1))) (let ((.def_168 (= .def_167 A8))) (let ((.def_169 (not .def_168))) (let ((.def_170 (and .def_169 .def_165))) (let ((.def_171 (and .def_170 .def_158))) (let ((.def_172 (not .def_171))) (let ((.def_173 (or A1 .def_126))) (let ((.def_174 (< .def_76 (- 1)))) (let ((.def_175 (and A8 .def_174))) (let ((.def_176 (not .def_175))) (let ((.def_177 (or .def_176 .def_173))) (let ((.def_178 (< .def_9 1))) (let ((.def_179 (* (- 1) x9))) (let ((.def_180 (< .def_179 (- 1)))) (let ((.def_181 (not .def_180))) (let ((.def_182 (and .def_181 .def_178))) (let ((.def_183 (< .def_16 1))) (let ((.def_184 (not .def_183))) (let ((.def_185 (< .def_11 (- 1)))) (let ((.def_186 (and .def_185 .def_184))) (let ((.def_187 (not .def_186))) (let ((.def_188 (and .def_187 .def_182))) (let ((.def_189 (or .def_188 .def_177))) (let ((.def_190 (not .def_189))) (let ((.def_191 (or .def_190 .def_172))) (let ((.def_192 (not .def_191))) (let ((.def_193 (or .def_192 .def_148))) (let ((.def_194 (= .def_193 .def_103))) (let ((.def_195 (< .def_20 1))) (let ((.def_196 (and .def_195 .def_4))) (let ((.def_197 (and .def_126 .def_109))) (let ((.def_198 (not .def_197))) (let ((.def_199 (= .def_198 .def_196))) (let ((.def_200 (not .def_199))) (let ((.def_201 (not A9))) (let ((.def_202 (and .def_127 .def_201))) (let ((.def_203 (or A3 A9))) (let ((.def_204 (not .def_203))) (let ((.def_205 (or .def_204 .def_202))) (let ((.def_206 (not .def_205))) (let ((.def_207 (and .def_206 .def_200))) (let ((.def_208 (not .def_207))) (let ((.def_209 (not A8))) (let ((.def_210 (and .def_209 .def_64))) (let ((.def_211 (and A9 .def_0))) (let ((.def_212 (and .def_211 .def_210))) (let ((.def_213 (or .def_37 .def_67))) (let ((.def_214 (not .def_213))) (let ((.def_215 (or .def_209 .def_67))) (let ((.def_216 (not .def_215))) (let ((.def_217 (and .def_216 .def_214))) (let ((.def_218 (and .def_217 .def_212))) (let ((.def_219 (not .def_218))) (let ((.def_220 (and .def_219 .def_208))) (let ((.def_221 (not .def_220))) (let ((.def_222 (+ .def_19 .def_42))) (let ((.def_223 (< .def_222 1))) (let ((.def_224 (or A4 .def_223))) (let ((.def_225 (not .def_224))) (let ((.def_226 (< .def_20 (- 1)))) (let ((.def_227 (not .def_226))) (let ((.def_228 (+ .def_104 .def_179))) (let ((.def_229 (< .def_228 (- 1)))) (let ((.def_230 (or .def_229 .def_227))) (let ((.def_231 (not .def_230))) (let ((.def_232 (or .def_231 .def_225))) (let ((.def_233 (* 1 x1))) (let ((.def_234 (+ .def_233 .def_19))) (let ((.def_235 (< .def_234 1))) (let ((.def_236 (not .def_235))) (let ((.def_237 (and A3 .def_236))) (let ((.def_238 (not .def_237))) (let ((.def_239 (< .def_112 (- 1)))) (let ((.def_240 (not .def_239))) (let ((.def_241 (or .def_126 .def_240))) (let ((.def_242 (not .def_241))) (let ((.def_243 (or .def_242 .def_238))) (let ((.def_244 (not .def_243))) (let ((.def_245 (and .def_244 .def_232))) (let ((.def_246 (+ .def_9 .def_104))) (let ((.def_247 (< .def_246 (- 1)))) (let ((.def_248 (not .def_247))) (let ((.def_249 (+ .def_82 .def_11))) (let ((.def_250 (< .def_249 (- 1)))) (let ((.def_251 (not .def_250))) (let ((.def_252 (or .def_251 .def_248))) (let ((.def_253 (not .def_252))) (let ((.def_254 (= A9 .def_201))) (let ((.def_255 (= .def_254 .def_253))) (let ((.def_256 (not .def_255))) (let ((.def_257 (and .def_129 A9))) (let ((.def_258 (not .def_257))) (let ((.def_259 (or .def_201 A9))) (let ((.def_260 (or .def_259 .def_258))) (let ((.def_261 (or .def_260 .def_256))) (let ((.def_262 (not .def_261))) (let ((.def_263 (or .def_262 .def_245))) (let ((.def_264 (and .def_263 .def_221))) (let ((.def_265 (+ .def_9 .def_20))) (let ((.def_266 (< .def_265 1))) (let ((.def_267 (+ .def_19 .def_20))) (let ((.def_268 (< .def_267 (- 1)))) (let ((.def_269 (and .def_268 .def_266))) (let ((.def_270 (< .def_81 1))) (let ((.def_271 (not .def_270))) (let ((.def_272 (or .def_64 .def_271))) (let ((.def_273 (= .def_272 .def_269))) (let ((.def_274 (not .def_273))) (let ((.def_275 (not .def_75))) (let ((.def_276 (and .def_275 .def_36))) (let ((.def_277 (< .def_233 1))) (let ((.def_278 (or .def_277 .def_67))) (let ((.def_279 (not .def_278))) (let ((.def_280 (or .def_279 .def_276))) (let ((.def_281 (or .def_280 .def_274))) (let ((.def_282 (or .def_178 A0))) (let ((.def_283 (not .def_282))) (let ((.def_284 (or .def_140 .def_37))) (let ((.def_285 (or .def_284 .def_283))) (let ((.def_286 (+ .def_19 .def_94))) (let ((.def_287 (< .def_286 1))) (let ((.def_288 (not .def_287))) (let ((.def_289 (or .def_174 .def_288))) (let ((.def_290 (not .def_289))) (let ((.def_291 (and .def_107 A2))) (let ((.def_292 (not .def_291))) (let ((.def_293 (and .def_292 .def_290))) (let ((.def_294 (not .def_293))) (let ((.def_295 (and .def_294 .def_285))) (let ((.def_296 (not .def_295))) (let ((.def_297 (or .def_296 .def_281))) (let ((.def_298 (or .def_36 .def_127))) (let ((.def_299 (not .def_298))) (let ((.def_300 (or .def_67 .def_155))) (let ((.def_301 (or .def_300 .def_299))) (let ((.def_302 (not .def_109))) (let ((.def_303 (or .def_302 A0))) (let ((.def_304 (< .def_31 (- 1)))) (let ((.def_305 (and .def_304 .def_304))) (let ((.def_306 (= .def_305 .def_303))) (let ((.def_307 (not .def_306))) (let ((.def_308 (and .def_307 .def_301))) (let ((.def_309 (or A5 A0))) (let ((.def_310 (not .def_309))) (let ((.def_311 (and .def_37 .def_127))) (let ((.def_312 (not .def_311))) (let ((.def_313 (and .def_312 .def_310))) (let ((.def_314 (not .def_313))) (let ((.def_315 (< .def_19 1))) (let ((.def_316 (not .def_315))) (let ((.def_317 (and .def_316 A1))) (let ((.def_318 (+ .def_94 .def_19))) (let ((.def_319 (< .def_318 (- 1)))) (let ((.def_320 (+ .def_81 .def_16))) (let ((.def_321 (< .def_320 (- 1)))) (let ((.def_322 (and .def_321 .def_319))) (let ((.def_323 (and .def_322 .def_317))) (let ((.def_324 (not .def_323))) (let ((.def_325 (or .def_324 .def_314))) (let ((.def_326 (= .def_325 .def_308))) (let ((.def_327 (not .def_326))) (let ((.def_328 (or .def_327 .def_297))) (let ((.def_329 (not .def_328))) (let ((.def_330 (and .def_329 .def_264))) (let ((.def_331 (or .def_330 .def_194))) (let ((.def_332 (not .def_331))) (let ((.def_333 (<= x9 1))) (let ((.def_334 (<= 0 x9))) (let ((.def_335 (<= x8 1))) (let ((.def_336 (<= 0 x8))) (let ((.def_337 (<= x7 1))) (let ((.def_338 (<= 0 x7))) (let ((.def_339 (<= x6 1))) (let ((.def_340 (<= 0 x6))) (let ((.def_341 (<= x5 1))) (let ((.def_342 (<= 0 x5))) (let ((.def_343 (<= x4 1))) (let ((.def_344 (<= 0 x4))) (let ((.def_345 (<= x3 1))) (let ((.def_346 (<= 0 x3))) (let ((.def_347 (<= x2 1))) (let ((.def_348 (<= 0 x2))) (let ((.def_349 (<= x1 1))) (let ((.def_350 (<= 0 x1))) (let ((.def_351 (<= x0 1))) (let ((.def_352 (<= 0 x0))) (let ((.def_353 (and .def_352 .def_351 .def_350 .def_349 .def_348 .def_347 .def_346 .def_345 .def_344 .def_343 .def_342 .def_341 .def_340 .def_339 .def_338 .def_337 .def_336 .def_335 .def_334 .def_333 .def_332))) .def_353)))))))))))))))))))))))))))))))))))))))))))))))))))))))))))))))))))))))))))))))))))))))))))))))))))))))))))))))))))))))))))))))))))))))))))))))))))))))))))))))))))))))))))))))))))))))))))))))))))))))))))))))))))))))))))))))))))))))))))))))))))))))))))))))))))))))))))))))))))))))))))))))))))))))))))))))))))))))))))))))))))))))))))))))))))))))))))))))))))
(check-sat)
